/*********************************************
 * OPL 12.6.0.0 Data
 * Author: Adrian Rodriguez Bazaga, Pau Rodriguez Esmerats
 * Creation Date: 06/12/2017 at 23:04:58
 *********************************************/

nNurses=235;
maxConsec=2;
maxPresence=7;
maxHours=5;
minHours=1;
hours=24;
demand= [39 38 65 61 38 65 61 40 44 25 4 4 6 5 8 3 7 2 4 1 39 60 23 59  ];
